problems/csplib-prob030/BalancedAcademicCurriculumProblem-models/compact/O0/minion/model-bacp-28-solution000001.eprime-solution
language ESSENCE' 1.0

letting curr_Function1D be
        [10, 10, 1, 10, 1, 1, 9, 3, 1, 9, 9, 8, 2, 8, 2, 8, 8, 2, 1, 7, 3, 5, 3, 1, 2, 6, 2, 4, 3, 5, 5, 4, 4, 2, 4, 4,
         4, 3, 3, 2, 3, 3, 2, 2, 1, 6, 1, 7, 1, 1;
             int(1..50)]
