problems/csplib-prob030/BalancedAcademicCurriculumProblem-models/noch/O0/minion/model-bacp-28-solution000001.solution
language Essence 1.3

letting curr be
        function(1 --> 10, 2 --> 10, 3 --> 1, 4 --> 10, 5 --> 1, 6 --> 1, 7 --> 9, 8 --> 3, 9 --> 1, 10 --> 9, 11 --> 9,
                 12 --> 8, 13 --> 2, 14 --> 8, 15 --> 2, 16 --> 8, 17 --> 8, 18 --> 2, 19 --> 1, 20 --> 7, 21 --> 3,
                 22 --> 5, 23 --> 3, 24 --> 1, 25 --> 2, 26 --> 6, 27 --> 2, 28 --> 4, 29 --> 3, 30 --> 5, 31 --> 5,
                 32 --> 4, 33 --> 4, 34 --> 2, 35 --> 4, 36 --> 4, 37 --> 4, 38 --> 3, 39 --> 3, 40 --> 2, 41 --> 3,
                 42 --> 3, 43 --> 2, 44 --> 2, 45 --> 1, 46 --> 6, 47 --> 1, 48 --> 7, 49 --> 1, 50 --> 1)
